Code/Skinny64_SSB.mps
* Signature: 0x1380d8e5f2e7cd1a
NAME Skinny64_SSBSSB
ROWS
 N  OBJ
 G  R0      
 G  R1      
 G  R2      
 G  R3      
 G  R4      
 G  R5      
 G  R6      
 G  R7      
 G  R8      
 G  R9      
 G  R10     
 G  R11     
 G  R12     
 G  R13     
 G  R14     
 G  R15     
 G  R16     
 G  R17     
 G  R18     
 G  R19     
 G  R20     
 G  R21     
 G  R22     
 G  R23     
 G  R24     
 G  R25     
 G  R26     
 G  R27     
 G  R28     
 G  R29     
 G  R30     
 G  R31     
 G  R32     
 G  R33     
 G  R34     
 G  R35     
 G  R36     
 G  R37     
 G  R38     
 G  R39     
 G  R40     
 G  R41     
 G  R42     
 G  R43     
 G  R44     
 G  R45     
 G  R46     
 G  R47     
 E  R48     
 E  R49     
 E  R50     
 E  R51     
 E  R52     
 E  R53     
 E  R54     
 E  R55     
 E  R56     
 E  R57     
 E  R58     
 E  R59     
 E  R60     
 E  R61     
 E  R62     
 E  R63     
 G  R64     
 G  R65     
 G  R66     
 G  R67     
 G  R68     
 G  R69     
 G  R70     
 G  R71     
 G  R72     
 G  R73     
 G  R74     
 G  R75     
 G  R76     
 G  R77     
 G  R78     
 G  R79     
 G  R80     
 G  R81     
 G  R82     
 G  R83     
 G  R84     
 G  R85     
 G  R86     
 G  R87     
 G  R88     
 G  R89     
 G  R90     
 G  R91     
 G  R92     
 G  R93     
 G  R94     
 G  R95     
 G  R96     
 G  R97     
 G  R98     
 G  R99     
 G  R100    
 G  R101    
 G  R102    
 G  R103    
 G  R104    
 G  R105    
 G  R106    
 G  R107    
 G  R108    
 G  R109    
 G  R110    
 G  R111    
 G  R112    
 G  R113    
 G  R114    
 G  R115    
 G  R116    
 G  R117    
 G  R118    
 G  R119    
 G  R120    
 G  R121    
 G  R122    
 G  R123    
 G  R124    
 G  R125    
 G  R126    
 G  R127    
 G  R128    
 G  R129    
 G  R130    
 G  R131    
 G  R132    
 G  R133    
 G  R134    
 G  R135    
 G  R136    
 G  R137    
 G  R138    
 G  R139    
 G  R140    
 G  R141    
 G  R142    
 G  R143    
 G  R144    
 G  R145    
 G  R146    
 G  R147    
 G  R148    
 G  R149    
 G  R150    
 G  R151    
COLUMNS
    MARKER    'MARKER'                 'INTORG'
    u0        R0        1
    u0        R1        -4
    u0        R2        2
    u0        R3        -2
    u0        R7        4
    u0        R8        -1
    u0        R9        2
    u0        R10       2
    u1        R0        3
    u1        R1        -2
    u1        R4        1
    u1        R5        1
    u1        R6        -1
    u1        R7        1
    u1        R9        -1
    u1        R10       1
    u1        R11       -1
    u2        R0        2
    u2        R1        -2
    u2        R2        1
    u2        R3        -1
    u2        R4        -1
    u2        R7        1
    u2        R9        -1
    u3        R0        4
    u3        R1        -3
    u3        R2        1
    u3        R3        -1
    u3        R4        -1
    u3        R7        6
    u3        R9        1
    u3        R10       1
    u3        R11       -1
    u4        R12       1
    u4        R13       -4
    u4        R14       2
    u4        R15       -2
    u4        R19       4
    u4        R20       -1
    u4        R21       2
    u4        R22       2
    u5        R12       3
    u5        R13       -2
    u5        R16       1
    u5        R17       1
    u5        R18       -1
    u5        R19       1
    u5        R21       -1
    u5        R22       1
    u5        R23       -1
    u6        R12       2
    u6        R13       -2
    u6        R14       1
    u6        R15       -1
    u6        R16       -1
    u6        R19       1
    u6        R21       -1
    u7        R12       4
    u7        R13       -3
    u7        R14       1
    u7        R15       -1
    u7        R16       -1
    u7        R19       6
    u7        R21       1
    u7        R22       1
    u7        R23       -1
    u8        R24       1
    u8        R25       -4
    u8        R26       2
    u8        R27       -2
    u8        R31       4
    u8        R32       -1
    u8        R33       2
    u8        R34       2
    u9        R24       3
    u9        R25       -2
    u9        R28       1
    u9        R29       1
    u9        R30       -1
    u9        R31       1
    u9        R33       -1
    u9        R34       1
    u9        R35       -1
    u10       R24       2
    u10       R25       -2
    u10       R26       1
    u10       R27       -1
    u10       R28       -1
    u10       R31       1
    u10       R33       -1
    u11       R24       4
    u11       R25       -3
    u11       R26       1
    u11       R27       -1
    u11       R28       -1
    u11       R31       6
    u11       R33       1
    u11       R34       1
    u11       R35       -1
    u12       R36       1
    u12       R37       -4
    u12       R38       2
    u12       R39       -2
    u12       R43       4
    u12       R44       -1
    u12       R45       2
    u12       R46       2
    u13       R36       3
    u13       R37       -2
    u13       R40       1
    u13       R41       1
    u13       R42       -1
    u13       R43       1
    u13       R45       -1
    u13       R46       1
    u13       R47       -1
    u14       R36       2
    u14       R37       -2
    u14       R38       1
    u14       R39       -1
    u14       R40       -1
    u14       R43       1
    u14       R45       -1
    u15       R36       4
    u15       R37       -3
    u15       R38       1
    u15       R39       -1
    u15       R40       -1
    u15       R43       6
    u15       R45       1
    u15       R46       1
    u15       R47       -1
    x0        R0        -8
    x0        R1        2
    x0        R3        3
    x0        R4        -2
    x0        R5        -1
    x0        R6        1
    x0        R7        -4
    x0        R8        -1
    x0        R9        -2
    x0        R11       1
    x0        R48       1
    x1        R0        -2
    x1        R1        1
    x1        R2        -4
    x1        R3        2
    x1        R4        1
    x1        R6        1
    x1        R7        -5
    x1        R9        -1
    x1        R10       -2
    x1        R11       1
    x1        R49       1
    x2        R0        -5
    x2        R1        3
    x2        R2        -1
    x2        R3        1
    x2        R4        -1
    x2        R6        1
    x2        R7        -2
    x2        R8        -1
    x2        R9        1
    x2        R10       -1
    x2        R50       1
    x3        R0        -1
    x3        R1        -1
    x3        R2        -2
    x3        R3        2
    x3        R5        -1
    x3        R8        1
    x3        R9        1
    x3        R11       1
    x3        R51       1
    x4        R12       -8
    x4        R13       2
    x4        R15       3
    x4        R16       -2
    x4        R17       -1
    x4        R18       1
    x4        R19       -4
    x4        R20       -1
    x4        R21       -2
    x4        R23       1
    x4        R52       1
    x5        R12       -2
    x5        R13       1
    x5        R14       -4
    x5        R15       2
    x5        R16       1
    x5        R18       1
    x5        R19       -5
    x5        R21       -1
    x5        R22       -2
    x5        R23       1
    x5        R53       1
    x6        R12       -5
    x6        R13       3
    x6        R14       -1
    x6        R15       1
    x6        R16       -1
    x6        R18       1
    x6        R19       -2
    x6        R20       -1
    x6        R21       1
    x6        R22       -1
    x6        R54       1
    x7        R12       -1
    x7        R13       -1
    x7        R14       -2
    x7        R15       2
    x7        R17       -1
    x7        R20       1
    x7        R21       1
    x7        R23       1
    x7        R55       1
    x8        R24       -8
    x8        R25       2
    x8        R27       3
    x8        R28       -2
    x8        R29       -1
    x8        R30       1
    x8        R31       -4
    x8        R32       -1
    x8        R33       -2
    x8        R35       1
    x8        R56       1
    x9        R24       -2
    x9        R25       1
    x9        R26       -4
    x9        R27       2
    x9        R28       1
    x9        R30       1
    x9        R31       -5
    x9        R33       -1
    x9        R34       -2
    x9        R35       1
    x9        R57       1
    x10       R24       -5
    x10       R25       3
    x10       R26       -1
    x10       R27       1
    x10       R28       -1
    x10       R30       1
    x10       R31       -2
    x10       R32       -1
    x10       R33       1
    x10       R34       -1
    x10       R58       1
    x11       R24       -1
    x11       R25       -1
    x11       R26       -2
    x11       R27       2
    x11       R29       -1
    x11       R32       1
    x11       R33       1
    x11       R35       1
    x11       R59       1
    x12       R36       -8
    x12       R37       2
    x12       R39       3
    x12       R40       -2
    x12       R41       -1
    x12       R42       1
    x12       R43       -4
    x12       R44       -1
    x12       R45       -2
    x12       R47       1
    x12       R60       1
    x13       R36       -2
    x13       R37       1
    x13       R38       -4
    x13       R39       2
    x13       R40       1
    x13       R42       1
    x13       R43       -5
    x13       R45       -1
    x13       R46       -2
    x13       R47       1
    x13       R61       1
    x14       R36       -5
    x14       R37       3
    x14       R38       -1
    x14       R39       1
    x14       R40       -1
    x14       R42       1
    x14       R43       -2
    x14       R44       -1
    x14       R45       1
    x14       R46       -1
    x14       R62       1
    x15       R36       -1
    x15       R37       -1
    x15       R38       -2
    x15       R39       2
    x15       R41       -1
    x15       R44       1
    x15       R45       1
    x15       R47       1
    x15       R63       1
    k0        R48       1
    k1        R49       1
    k2        R50       1
    k3        R51       1
    k4        R52       1
    k5        R53       1
    k6        R54       1
    k7        R55       1
    k8        R56       1
    k9        R57       1
    k10       R58       1
    k11       R59       1
    k12       R60       1
    k13       R61       1
    k14       R62       1
    k15       R63       1
    y0        R48       -1
    y0        R64       -1
    y0        R65       1
    y0        R68       1
    y0        R71       -1
    y0        R72       1
    y1        R49       -1
    y1        R74       -1
    y1        R75       1
    y1        R78       1
    y1        R81       -1
    y1        R82       1
    y2        R50       -1
    y2        R84       -1
    y2        R85       1
    y2        R88       1
    y2        R91       -1
    y2        R92       1
    y3        R51       -1
    y3        R94       -1
    y3        R95       1
    y3        R98       1
    y3        R101      -1
    y3        R102      1
    y4        R52       -1
    y4        R64       -1
    y4        R66       1
    y4        R67       -1
    y4        R69       1
    y4        R71       -1
    y4        R73       1
    y5        R53       -1
    y5        R74       -1
    y5        R76       1
    y5        R77       -1
    y5        R79       1
    y5        R81       -1
    y5        R83       1
    y6        R54       -1
    y6        R84       -1
    y6        R86       1
    y6        R87       -1
    y6        R89       1
    y6        R91       -1
    y6        R93       1
    y7        R55       -1
    y7        R94       -1
    y7        R96       1
    y7        R97       -1
    y7        R99       1
    y7        R101      -1
    y7        R103      1
    y8        R56       -1
    y8        R64       -1
    y8        R66       1
    y8        R68       1
    y8        R71       -1
    y8        R72       1
    y9        R57       -1
    y9        R74       -1
    y9        R76       1
    y9        R78       1
    y9        R81       -1
    y9        R82       1
    y10       R58       -1
    y10       R84       -1
    y10       R86       1
    y10       R88       1
    y10       R91       -1
    y10       R92       1
    y11       R59       -1
    y11       R94       -1
    y11       R96       1
    y11       R98       1
    y11       R101      -1
    y11       R102      1
    y12       R60       -1
    y12       R64       -1
    y12       R70       -1
    y12       R72       1
    y12       R73       1
    y13       R61       -1
    y13       R74       -1
    y13       R80       -1
    y13       R82       1
    y13       R83       1
    y14       R62       -1
    y14       R84       -1
    y14       R90       -1
    y14       R92       1
    y14       R93       1
    y15       R63       -1
    y15       R94       -1
    y15       R100      -1
    y15       R102      1
    y15       R103      1
    z0        R64       1
    z0        R70       1
    z0        R72       -1
    z0        R73       -1
    z0        R104      1
    z0        R105      -4
    z0        R106      2
    z0        R107      -2
    z0        R111      4
    z0        R112      -1
    z0        R113      2
    z0        R114      2
    z1        R74       1
    z1        R80       1
    z1        R82       -1
    z1        R83       -1
    z1        R104      3
    z1        R105      -2
    z1        R108      1
    z1        R109      1
    z1        R110      -1
    z1        R111      1
    z1        R113      -1
    z1        R114      1
    z1        R115      -1
    z2        R84       1
    z2        R90       1
    z2        R92       -1
    z2        R93       -1
    z2        R104      2
    z2        R105      -2
    z2        R106      1
    z2        R107      -1
    z2        R108      -1
    z2        R111      1
    z2        R113      -1
    z3        R94       1
    z3        R100      1
    z3        R102      -1
    z3        R103      -1
    z3        R104      4
    z3        R105      -3
    z3        R106      1
    z3        R107      -1
    z3        R108      -1
    z3        R111      6
    z3        R113      1
    z3        R114      1
    z3        R115      -1
    z4        R64       1
    z4        R65       -1
    z4        R69       -1
    z4        R71       1
    z4        R73       -1
    z4        R116      1
    z4        R117      -4
    z4        R118      2
    z4        R119      -2
    z4        R123      4
    z4        R124      -1
    z4        R125      2
    z4        R126      2
    z5        R74       1
    z5        R75       -1
    z5        R79       -1
    z5        R81       1
    z5        R83       -1
    z5        R116      3
    z5        R117      -2
    z5        R120      1
    z5        R121      1
    z5        R122      -1
    z5        R123      1
    z5        R125      -1
    z5        R126      1
    z5        R127      -1
    z6        R84       1
    z6        R85       -1
    z6        R89       -1
    z6        R91       1
    z6        R93       -1
    z6        R116      2
    z6        R117      -2
    z6        R118      1
    z6        R119      -1
    z6        R120      -1
    z6        R123      1
    z6        R125      -1
    z7        R94       1
    z7        R95       -1
    z7        R99       -1
    z7        R101      1
    z7        R103      -1
    z7        R116      4
    z7        R117      -3
    z7        R118      1
    z7        R119      -1
    z7        R120      -1
    z7        R123      6
    z7        R125      1
    z7        R126      1
    z7        R127      -1
    z8        R64       1
    z8        R66       -1
    z8        R67       1
    z8        R69       -1
    z8        R71       1
    z8        R73       -1
    z8        R128      1
    z8        R129      -4
    z8        R130      2
    z8        R131      -2
    z8        R135      4
    z8        R136      -1
    z8        R137      2
    z8        R138      2
    z9        R74       1
    z9        R76       -1
    z9        R77       1
    z9        R79       -1
    z9        R81       1
    z9        R83       -1
    z9        R128      3
    z9        R129      -2
    z9        R132      1
    z9        R133      1
    z9        R134      -1
    z9        R135      1
    z9        R137      -1
    z9        R138      1
    z9        R139      -1
    z10       R84       1
    z10       R86       -1
    z10       R87       1
    z10       R89       -1
    z10       R91       1
    z10       R93       -1
    z10       R128      2
    z10       R129      -2
    z10       R130      1
    z10       R131      -1
    z10       R132      -1
    z10       R135      1
    z10       R137      -1
    z11       R94       1
    z11       R96       -1
    z11       R97       1
    z11       R99       -1
    z11       R101      1
    z11       R103      -1
    z11       R128      4
    z11       R129      -3
    z11       R130      1
    z11       R131      -1
    z11       R132      -1
    z11       R135      6
    z11       R137      1
    z11       R138      1
    z11       R139      -1
    z12       R64       1
    z12       R68       -1
    z12       R69       -1
    z12       R140      1
    z12       R141      -4
    z12       R142      2
    z12       R143      -2
    z12       R147      4
    z12       R148      -1
    z12       R149      2
    z12       R150      2
    z13       R74       1
    z13       R78       -1
    z13       R79       -1
    z13       R140      3
    z13       R141      -2
    z13       R144      1
    z13       R145      1
    z13       R146      -1
    z13       R147      1
    z13       R149      -1
    z13       R150      1
    z13       R151      -1
    z14       R84       1
    z14       R88       -1
    z14       R89       -1
    z14       R140      2
    z14       R141      -2
    z14       R142      1
    z14       R143      -1
    z14       R144      -1
    z14       R147      1
    z14       R149      -1
    z15       R94       1
    z15       R98       -1
    z15       R99       -1
    z15       R140      4
    z15       R141      -3
    z15       R142      1
    z15       R143      -1
    z15       R144      -1
    z15       R147      6
    z15       R149      1
    z15       R150      1
    z15       R151      -1
    v0        R104      -8
    v0        R105      2
    v0        R107      3
    v0        R108      -2
    v0        R109      -1
    v0        R110      1
    v0        R111      -4
    v0        R112      -1
    v0        R113      -2
    v0        R115      1
    v1        R104      -2
    v1        R105      1
    v1        R106      -4
    v1        R107      2
    v1        R108      1
    v1        R110      1
    v1        R111      -5
    v1        R113      -1
    v1        R114      -2
    v1        R115      1
    v2        R104      -5
    v2        R105      3
    v2        R106      -1
    v2        R107      1
    v2        R108      -1
    v2        R110      1
    v2        R111      -2
    v2        R112      -1
    v2        R113      1
    v2        R114      -1
    v3        R104      -1
    v3        R105      -1
    v3        R106      -2
    v3        R107      2
    v3        R109      -1
    v3        R112      1
    v3        R113      1
    v3        R115      1
    v4        R116      -8
    v4        R117      2
    v4        R119      3
    v4        R120      -2
    v4        R121      -1
    v4        R122      1
    v4        R123      -4
    v4        R124      -1
    v4        R125      -2
    v4        R127      1
    v5        R116      -2
    v5        R117      1
    v5        R118      -4
    v5        R119      2
    v5        R120      1
    v5        R122      1
    v5        R123      -5
    v5        R125      -1
    v5        R126      -2
    v5        R127      1
    v6        R116      -5
    v6        R117      3
    v6        R118      -1
    v6        R119      1
    v6        R120      -1
    v6        R122      1
    v6        R123      -2
    v6        R124      -1
    v6        R125      1
    v6        R126      -1
    v7        R116      -1
    v7        R117      -1
    v7        R118      -2
    v7        R119      2
    v7        R121      -1
    v7        R124      1
    v7        R125      1
    v7        R127      1
    v8        R128      -8
    v8        R129      2
    v8        R131      3
    v8        R132      -2
    v8        R133      -1
    v8        R134      1
    v8        R135      -4
    v8        R136      -1
    v8        R137      -2
    v8        R139      1
    v9        R128      -2
    v9        R129      1
    v9        R130      -4
    v9        R131      2
    v9        R132      1
    v9        R134      1
    v9        R135      -5
    v9        R137      -1
    v9        R138      -2
    v9        R139      1
    v10       R128      -5
    v10       R129      3
    v10       R130      -1
    v10       R131      1
    v10       R132      -1
    v10       R134      1
    v10       R135      -2
    v10       R136      -1
    v10       R137      1
    v10       R138      -1
    v11       R128      -1
    v11       R129      -1
    v11       R130      -2
    v11       R131      2
    v11       R133      -1
    v11       R136      1
    v11       R137      1
    v11       R139      1
    v12       R140      -8
    v12       R141      2
    v12       R143      3
    v12       R144      -2
    v12       R145      -1
    v12       R146      1
    v12       R147      -4
    v12       R148      -1
    v12       R149      -2
    v12       R151      1
    v13       R140      -2
    v13       R141      1
    v13       R142      -4
    v13       R143      2
    v13       R144      1
    v13       R146      1
    v13       R147      -5
    v13       R149      -1
    v13       R150      -2
    v13       R151      1
    v14       R140      -5
    v14       R141      3
    v14       R142      -1
    v14       R143      1
    v14       R144      -1
    v14       R146      1
    v14       R147      -2
    v14       R148      -1
    v14       R149      1
    v14       R150      -1
    v15       R140      -1
    v15       R141      -1
    v15       R142      -2
    v15       R143      2
    v15       R145      -1
    v15       R148      1
    v15       R149      1
    v15       R151      1
    MARKER    'MARKER'                 'INTEND'
RHS
    RHS1      R0        -6
    RHS1      R1        -6
    RHS1      R2        -3
    RHS1      R4        -3
    RHS1      R5        -1
    RHS1      R7        -3
    RHS1      R8        -2
    RHS1      R9        -3
    RHS1      R10       -1
    RHS1      R11       -1
    RHS1      R12       -6
    RHS1      R13       -6
    RHS1      R14       -3
    RHS1      R16       -3
    RHS1      R17       -1
    RHS1      R19       -3
    RHS1      R20       -2
    RHS1      R21       -3
    RHS1      R22       -1
    RHS1      R23       -1
    RHS1      R24       -6
    RHS1      R25       -6
    RHS1      R26       -3
    RHS1      R28       -3
    RHS1      R29       -1
    RHS1      R31       -3
    RHS1      R32       -2
    RHS1      R33       -3
    RHS1      R34       -1
    RHS1      R35       -1
    RHS1      R36       -6
    RHS1      R37       -6
    RHS1      R38       -3
    RHS1      R40       -3
    RHS1      R41       -1
    RHS1      R43       -3
    RHS1      R44       -2
    RHS1      R45       -3
    RHS1      R46       -1
    RHS1      R47       -1
    RHS1      R69       -2
    RHS1      R71       -1
    RHS1      R73       -2
    RHS1      R79       -2
    RHS1      R81       -1
    RHS1      R83       -2
    RHS1      R89       -2
    RHS1      R91       -1
    RHS1      R93       -2
    RHS1      R99       -2
    RHS1      R101      -1
    RHS1      R103      -2
    RHS1      R104      -6
    RHS1      R105      -6
    RHS1      R106      -3
    RHS1      R108      -3
    RHS1      R109      -1
    RHS1      R111      -3
    RHS1      R112      -2
    RHS1      R113      -3
    RHS1      R114      -1
    RHS1      R115      -1
    RHS1      R116      -6
    RHS1      R117      -6
    RHS1      R118      -3
    RHS1      R120      -3
    RHS1      R121      -1
    RHS1      R123      -3
    RHS1      R124      -2
    RHS1      R125      -3
    RHS1      R126      -1
    RHS1      R127      -1
    RHS1      R128      -6
    RHS1      R129      -6
    RHS1      R130      -3
    RHS1      R132      -3
    RHS1      R133      -1
    RHS1      R135      -3
    RHS1      R136      -2
    RHS1      R137      -3
    RHS1      R138      -1
    RHS1      R139      -1
    RHS1      R140      -6
    RHS1      R141      -6
    RHS1      R142      -3
    RHS1      R144      -3
    RHS1      R145      -1
    RHS1      R147      -3
    RHS1      R148      -2
    RHS1      R149      -3
    RHS1      R150      -1
    RHS1      R151      -1
BOUNDS
 BV BND1      u0      
 BV BND1      u1      
 BV BND1      u2      
 BV BND1      u3      
 BV BND1      u4      
 BV BND1      u5      
 BV BND1      u6      
 BV BND1      u7      
 BV BND1      u8      
 BV BND1      u9      
 BV BND1      u10     
 BV BND1      u11     
 BV BND1      u12     
 BV BND1      u13     
 BV BND1      u14     
 BV BND1      u15     
 BV BND1      x0      
 BV BND1      x1      
 BV BND1      x2      
 BV BND1      x3      
 BV BND1      x4      
 BV BND1      x5      
 BV BND1      x6      
 BV BND1      x7      
 BV BND1      x8      
 BV BND1      x9      
 BV BND1      x10     
 BV BND1      x11     
 BV BND1      x12     
 BV BND1      x13     
 BV BND1      x14     
 BV BND1      x15     
 BV BND1      k0      
 BV BND1      k1      
 BV BND1      k2      
 BV BND1      k3      
 BV BND1      k4      
 BV BND1      k5      
 BV BND1      k6      
 BV BND1      k7      
 BV BND1      k8      
 BV BND1      k9      
 BV BND1      k10     
 BV BND1      k11     
 BV BND1      k12     
 BV BND1      k13     
 BV BND1      k14     
 BV BND1      k15     
 BV BND1      y0      
 BV BND1      y1      
 BV BND1      y2      
 BV BND1      y3      
 BV BND1      y4      
 BV BND1      y5      
 BV BND1      y6      
 BV BND1      y7      
 BV BND1      y8      
 BV BND1      y9      
 BV BND1      y10     
 BV BND1      y11     
 BV BND1      y12     
 BV BND1      y13     
 BV BND1      y14     
 BV BND1      y15     
 BV BND1      z0      
 BV BND1      z1      
 BV BND1      z2      
 BV BND1      z3      
 BV BND1      z4      
 BV BND1      z5      
 BV BND1      z6      
 BV BND1      z7      
 BV BND1      z8      
 BV BND1      z9      
 BV BND1      z10     
 BV BND1      z11     
 BV BND1      z12     
 BV BND1      z13     
 BV BND1      z14     
 BV BND1      z15     
 BV BND1      v0      
 BV BND1      v1      
 BV BND1      v2      
 BV BND1      v3      
 BV BND1      v4      
 BV BND1      v5      
 BV BND1      v6      
 BV BND1      v7      
 BV BND1      v8      
 BV BND1      v9      
 BV BND1      v10     
 BV BND1      v11     
 BV BND1      v12     
 BV BND1      v13     
 BV BND1      v14     
 BV BND1      v15     
ENDATA
